\ Model PassengerMixflow
\ LP format - for model browsing. Use MPS format to capture full model detail.
Minimize
  44 t_p^0[0] + 57 t_p^0[1] + 76 t_p^0[2] + 76 t_p^0[3] + 81 t_p^0[4]
   + 57 t_p^0[5] + 98 t_p^0[6] + 72 t_p^0[7] + 68 t_p^0[8] + 63 t_p^0[9]
   + 45 t_p^0[10] + 58 t_p^0[11] + 66 t_p^0[12] + 51 t_p^0[13]
   + 54 t_p^0[14] + 52 t_p^0[15] + 71 t_p^0[16] + 44 t_p^0[17]
   + 45 t_p^0[18] + 84 t_p^0[19] + 93 t_p^0[20] + 87 t_p^0[21]
   + 92 t_p^0[22] + 72 t_p^0[23] + 63 t_p^0[24] + 75 t_p^0[25]
   + 60 t_p^0[26] + 66 t_p^0[27] + 65 t_p^0[28] + 49 t_p^0[29]
   + 63 t_p^0[30] + 51 t_p^0[31] + 71 t_p^0[32] + 65 t_p^0[33]
   + 128 t_p^0[34] + 121 t_p^0[35] + 63 t_p^0[36] + 62 t_p^0[37]
   + 53 t_p^0[38] + 36 t_p^0[39] + 64 t_p^0[40] + 43 t_p^0[41]
   + 50 t_p^0[42] + 49 t_p^0[43] + 45 t_p^0[44] + 117 t_p^0[45]
   + 83 t_p^0[46] + 91 t_p^0[47] + 127 t_p^0[48] + 72 t_p^0[49]
   + 53 t_p^0[50] + 74 t_p^0[51] + 61 t_p^0[52] + 66 t_p^0[53]
   + 45 t_p^0[54] + 62 t_p^0[55] + 56 t_p^0[56] + 51 t_p^0[57]
   + 72 t_p^0[58] + 99 t_p^0[59] + 156 t_p^0[60] + 122 t_p^0[61]
   + 86 t_p^0[62] + 42 t_p^0[63] + 54 t_p^0[64] + 57 t_p^0[65]
   + 43 t_p^0[66] + 61 t_p^0[67] + 47 t_p^0[68] + 46 t_p^0[69]
   + 63 t_p^0[70] + 43 t_p^0[71] + 124 t_p^0[72] + 104 t_p^0[73]
   + 122 t_p^0[74] + 149 t_p^0[75] + 63 t_p^0[76] + 57 t_p^0[77]
   + 75 t_p^0[78] + 74 t_p^0[79] + 59 t_p^0[80] + 49 t_p^0[81]
   + 73 t_p^0[82] + 60 t_p^0[83] + 79 t_p^0[84] + 71 t_p^0[85]
   + 80 t_p^0[86] + 102 t_p^0[87] + 127 t_p^0[88] + 138 t_p^0[89]
   + 138 t_p^0[90] + 142 t_p^0[91] + 125 t_p^0[92] + 139 t_p^0[93]
   + 197 t_p^0[94] + 193 t_p^0[95] + 167 t_p^0[96] + 147 t_p^0[97]
   + 130 t_p^0[98] + 144 t_p^0[99] + 146 t_p^0[100] + 209 t_p^0[101]
   + 202 t_p^0[102] + 117 t_p^0[103] + 198 t_p^0[104] + 164 t_p^0[105]
   + 172 t_p^0[106] + 180 t_p^0[107] + 108 t_p^0[108] + 119 t_p^0[109]
   + 119 t_p^0[110] + 164 t_p^0[111] + 147 t_p^0[112] + 161 t_p^0[113]
   + 163 t_p^0[114] + 226 t_p^0[115] + 219 t_p^0[116] + 134 t_p^0[117]
   + 215 t_p^0[118] + 181 t_p^0[119] + 189 t_p^0[120] + 197 t_p^0[121]
   + 135 t_p^0[122] + 122 t_p^0[123] + 121 t_p^0[124] + 117 t_p^0[125]
   + 134 t_p^0[126] + 123 t_p^0[127] + 228 t_p^0[128] + 117 t_p^0[129]
   + 131 t_p^0[130] + 189 t_p^0[131] + 104 t_p^0[132] + 185 t_p^0[133]
   + 159 t_p^0[134] + 167 t_p^0[135] + 126 t_p^0[136] + 113 t_p^0[137]
   + 112 t_p^0[138] + 108 t_p^0[139] + 125 t_p^0[140] + 114 t_p^0[141]
   + 219 t_p^0[142] + 94 t_p^0[143] + 108 t_p^0[144] + 166 t_p^0[145]
   + 81 t_p^0[146] + 162 t_p^0[147] + 136 t_p^0[148] + 144 t_p^0[149]
   + 138 t_p^0[150] + 123 t_p^0[151] + 104 t_p^0[152] + 94 t_p^0[153]
   + 123 t_p^0[154] + 126 t_p^0[155] + 116 t_p^0[156] + 137 t_p^0[157]
   + 192 t_p^0[158] + 107 t_p^0[159] + 188 t_p^0[160] + 162 t_p^0[161]
   + 136 t_p^0[162] + 119 t_p^0[163] + 104 t_p^0[164] + 107 t_p^0[165]
   + 108 t_p^0[166] + 94 t_p^0[167] + 93 t_p^0[168] + 89 t_p^0[169]
   + 95 t_p^0[170] + 200 t_p^0[171] + 137 t_p^0[172] + 120 t_p^0[173]
   + 105 t_p^0[174] + 108 t_p^0[175] + 109 t_p^0[176] + 94 t_p^0[177]
   + 119 t_p^0[178] + 90 t_p^0[179] + 96 t_p^0[180] + 201 t_p^0[181]
   + 178 t_p^0[182] + 151 t_p^0[183] + 214 t_p^0[184] + 150 t_p^0[185]
   + 169 t_p^0[186] + 160 t_p^0[187] + 131 t_p^0[188] + 137 t_p^0[189]
   + 185 t_p^0[190] + 242 t_p^0[191] + 134 t_p^0[192] + 107 t_p^0[193]
   + 170 t_p^0[194] + 125 t_p^0[195] + 133 t_p^0[196] + 116 t_p^0[197]
   + 141 t_p^0[198] + 147 t_p^0[199] + 141 t_p^0[200] + 126 t_p^0[201]
   + 105 t_p^0[202] + 125 t_p^0[203] + 126 t_p^0[204] + 150 t_p^0[205]
   + 144 t_p^0[206] + 129 t_p^0[207] + 128 t_p^0[208] + 129 t_p^0[209]
   + 92 t_p^0[210] + 126 t_p^0[211] + 189 t_p^0[212] + 178 t_p^0[213]
   + 144 t_p^0[214] + 152 t_p^0[215] + 135 t_p^0[216] + 160 t_p^0[217]
   + 140 t_p^0[218] + 134 t_p^0[219] + 110 t_p^0[220] + 174 t_p^0[221]
   + 113 t_p^0[222] + 119 t_p^0[223] + 138 t_p^0[224] + 121 t_p^0[225]
   + 106 t_p^0[226] + 120 t_p^0[227] + 91 t_p^0[228] + 97 t_p^0[229]
   + 202 t_p^0[230] + 138 t_p^0[231] + 123 t_p^0[232] + 108 t_p^0[233]
   + 125 t_p^0[234] + 114 t_p^0[235] + 219 t_p^0[236] + 108 t_p^0[237]
   + 171 t_p^0[238] + 160 t_p^0[239] + 126 t_p^0[240] + 134 t_p^0[241]
   + 117 t_p^0[242] + 142 t_p^0[243] + 208 t_p^0[244] + 184 t_p^0[245]
   + 187 t_p^0[246] + 186 t_p^0[247] + 174 t_p^0[248] + 173 t_p^0[249]
   + 186 t_p^0[250] + 197 t_p^0[251] + 191 t_p^0[252] + 167 t_p^0[253]
   + 157 t_p^0[254] + 147 t_p^0[255] + 231 t_p^0[256] + 170 t_p^0[257]
   + 176 t_p^0[258] + 206 t_p^0[259] + 182 t_p^0[260] + 185 t_p^0[261]
   + 184 t_p^0[262] + 172 t_p^0[263] + 171 t_p^0[264] + 184 t_p^0[265]
   + 129 t_p^0[266] + 112 t_p^0[267] + 126 t_p^0[268] + 184 t_p^0[269]
   + 99 t_p^0[270] + 180 t_p^0[271] + 154 t_p^0[272] + 123 t_p^0[273]
   + 106 t_p^0[274] + 120 t_p^0[275] + 178 t_p^0[276] + 167 t_p^0[277]
   + 140 t_p^0[278] + 203 t_p^0[279] + 139 t_p^0[280] + 158 t_p^0[281]
   + 174 t_p^0[282] + 231 t_p^0[283] + 140 t_p^0[284] + 123 t_p^0[285]
   + 137 t_p^0[286] + 195 t_p^0[287] + 191 t_p^0[288] + 165 t_p^0[289]
   + 146 t_p^0[290] + 122 t_p^0[291] + 112 t_p^0[292] + 102 t_p^0[293]
   + 186 t_p^0[294] + 131 t_p^0[295] + 133 t_p^0[296] + 109 t_p^0[297]
   + 100 t_p^0[298] + 111 t_p^0[299] + 99 t_p^0[300] + 122 t_p^0[301]
   + 136 t_p^0[302] + 126 t_p^0[303] + 125 t_p^0[304] + 188 t_p^0[305]
   + 96 t_p^0[306] + 177 t_p^0[307] + 143 t_p^0[308] + 151 t_p^0[309]
   + 159 t_p^0[310] + 163 t_p^0[311] + 130 t_p^0[312] + 141 t_p^0[313]
   + 129 t_p^0[314] + 155 t_p^0[315] + 131 t_p^0[316] + 122 t_p^0[317]
   + 133 t_p^0[318] + 121 t_p^0[319] + 133 t_p^0[320] + 172 t_p^0[321]
   + 155 t_p^0[322] + 208 t_p^0[323] + 144 t_p^0[324] + 154 t_p^0[325]
   + 125 t_p^0[326] + 131 t_p^0[327] + 236 t_p^0[328]
Subject To
 Flight_EA1183_Spill: t_p^0[6] + t_p^0[111] + t_p^0[112] + t_p^0[113]
   + t_p^0[114] + t_p^0[115] + t_p^0[116] + t_p^0[117] + t_p^0[118]
   + t_p^0[119] + t_p^0[120] + t_p^0[121] >= 907
 Flight_EA3087_Spill: t_p^0[69] + t_p^0[224] + t_p^0[225] + t_p^0[226]
   + t_p^0[227] + t_p^0[228] + t_p^0[229] + t_p^0[230] >= 335
 Flight_EA3470_Spill: t_p^0[82] + t_p^0[301] + t_p^0[302] >= 39
 Flight_EA2836_Spill: t_p^0[61] >= -9
 Flight_EA1790_Spill: t_p^0[26] + t_p^0[164] + t_p^0[174] + t_p^0[226]
   + t_p^0[232] + t_p^0[245] + t_p^0[260] + t_p^0[297] + t_p^0[316] >= 506
 Flight_EA2726_Spill: t_p^0[57] + t_p^0[127] + t_p^0[141] + t_p^0[170]
   + t_p^0[180] + t_p^0[189] + t_p^0[229] + t_p^0[235] + t_p^0[327] >= 336
 Flight_EA1530_Spill: t_p^0[17] + t_p^0[162] + t_p^0[163] + t_p^0[164]
   + t_p^0[165] + t_p^0[166] + t_p^0[167] + t_p^0[168] + t_p^0[169]
   + t_p^0[170] + t_p^0[171] >= 287
 Flight_EA2327_Spill: t_p^0[44] >= -12
 Flight_EA1552_Spill: t_p^0[18] + t_p^0[172] + t_p^0[173] + t_p^0[174]
   + t_p^0[175] + t_p^0[176] + t_p^0[177] + t_p^0[178] + t_p^0[179]
   + t_p^0[180] + t_p^0[181] >= 384
 Flight_EA3614_Spill: t_p^0[87] >= -34
 Flight_EA1218_Spill: t_p^0[7] + t_p^0[122] + t_p^0[123] + t_p^0[124]
   + t_p^0[125] + t_p^0[126] + t_p^0[127] + t_p^0[128] >= 227
 Flight_EA1396_Spill: t_p^0[13] + t_p^0[149] + t_p^0[150] + t_p^0[151]
   + t_p^0[152] + t_p^0[153] + t_p^0[154] >= 277
 Flight_EA1015_Spill: t_p^0[0] >= -65
 Flight_EA3046_Spill: t_p^0[68] + t_p^0[218] + t_p^0[219] + t_p^0[220]
   + t_p^0[221] + t_p^0[222] + t_p^0[223] >= 184
 Flight_EA2877_Spill: t_p^0[62] + t_p^0[182] + t_p^0[183] + t_p^0[184]
   + t_p^0[185] + t_p^0[186] + t_p^0[187] + t_p^0[188] + t_p^0[189]
   + t_p^0[190] + t_p^0[191] >= 748
 Flight_EA1286_Spill: t_p^0[9] + t_p^0[136] + t_p^0[137] + t_p^0[138]
   + t_p^0[139] + t_p^0[140] + t_p^0[141] + t_p^0[142] >= 150
 Flight_EA3523_Spill: t_p^0[84] + t_p^0[311] + t_p^0[312] + t_p^0[313]
   + t_p^0[314] >= 100
 Flight_EA1458_Spill: t_p^0[15] >= -44
 Flight_EA2360_Spill: t_p^0[45] + t_p^0[95] + t_p^0[104] + t_p^0[118]
   + t_p^0[133] + t_p^0[147] + t_p^0[160] + t_p^0[213] + t_p^0[239]
   + t_p^0[271] + t_p^0[288] + t_p^0[307] >= 492
 Flight_EA2385_Spill: t_p^0[46] + t_p^0[105] + t_p^0[119] + t_p^0[186]
   + t_p^0[195] + t_p^0[214] + t_p^0[240] + t_p^0[281] + t_p^0[308] >= 365
 Flight_EA3373_Spill: t_p^0[79] + t_p^0[284] + t_p^0[285] + t_p^0[286]
   + t_p^0[287] + t_p^0[288] + t_p^0[289] >= 171
 Flight_EA1942_Spill: t_p^0[31] + t_p^0[88] + t_p^0[108] + t_p^0[202]
   + t_p^0[298] + t_p^0[312] + t_p^0[317] >= 225
 Flight_EA3433_Spill: t_p^0[81] + t_p^0[296] + t_p^0[297] + t_p^0[298]
   + t_p^0[299] + t_p^0[300] >= 355
 Flight_EA1961_Spill: t_p^0[32] + t_p^0[203] + t_p^0[208] >= 9
 Flight_EA1488_Spill: t_p^0[16] + t_p^0[157] + t_p^0[158] + t_p^0[159]
   + t_p^0[160] + t_p^0[161] >= 236
 Flight_EA1824_Spill: t_p^0[27] + t_p^0[91] + t_p^0[97] + t_p^0[111]
   + t_p^0[157] + t_p^0[266] + t_p^0[273] + t_p^0[284] + t_p^0[303]
   >= 1125
 Flight_EA2037_Spill: t_p^0[34] + t_p^0[101] + t_p^0[115] + t_p^0[184]
   + t_p^0[194] + t_p^0[212] + t_p^0[238] + t_p^0[279] + t_p^0[305]
   + t_p^0[323] >= 670
 Flight_EA1336_Spill: t_p^0[11] >= 100
 Flight_EA2091_Spill: t_p^0[36] + t_p^0[122] + t_p^0[136] + t_p^0[165]
   + t_p^0[175] + t_p^0[246] + t_p^0[261] >= 102
 Flight_EA1721_Spill: t_p^0[24] + t_p^0[220] + t_p^0[253] + t_p^0[291]
   >= 147
 Flight_EA3315_Spill: t_p^0[77] + t_p^0[273] + t_p^0[274] + t_p^0[275]
   + t_p^0[276] >= 125
 Flight_EA1698_Spill: t_p^0[23] + t_p^0[151] + t_p^0[155] + t_p^0[201]
   + t_p^0[207] >= 281
 Flight_EA1877_Spill: t_p^0[29] + t_p^0[92] + t_p^0[98] + t_p^0[112]
   + t_p^0[129] + t_p^0[143] + t_p^0[210] + t_p^0[267] + t_p^0[274]
   + t_p^0[285] + t_p^0[301] >= 339
 Flight_EA1574_Spill: t_p^0[19] + t_p^0[244] + t_p^0[259] + t_p^0[296]
   + t_p^0[311] + t_p^0[315] >= 980
 Flight_EA2488_Spill: t_p^0[49] >= -16
 Flight_EA3115_Spill: t_p^0[70] + t_p^0[231] + t_p^0[232] + t_p^0[233]
   + t_p^0[234] + t_p^0[235] + t_p^0[236] >= 169
 Flight_EA2452_Spill: t_p^0[48] + t_p^0[221] + t_p^0[256] + t_p^0[294]
   >= 303
 Flight_EA1618_Spill: t_p^0[20] + t_p^0[149] + t_p^0[199] + t_p^0[205]
   + t_p^0[218] + t_p^0[251] >= 81
 Flight_EA3220_Spill: t_p^0[74] + t_p^0[259] + t_p^0[260] + t_p^0[261]
   + t_p^0[262] + t_p^0[263] + t_p^0[264] + t_p^0[265] >= 781
 Flight_EA2307_Spill: t_p^0[43] + t_p^0[124] + t_p^0[138] + t_p^0[168]
   + t_p^0[177] + t_p^0[249] + t_p^0[264] >= 91
 Flight_EA2152_Spill: t_p^0[38] + t_p^0[152] + t_p^0[254] + t_p^0[292]
   >= 47
 Flight_EA1436_Spill: t_p^0[14] + t_p^0[155] + t_p^0[156] >= 150
 Flight_EA1039_Spill: t_p^0[1] >= -30
 Flight_EA2789_Spill: t_p^0[59] + t_p^0[107] + t_p^0[121] + t_p^0[135]
   + t_p^0[190] + t_p^0[198] + t_p^0[217] + t_p^0[243] + t_p^0[282]
   + t_p^0[310] >= 450
 Flight_EA2180_Spill: t_p^0[39] + t_p^0[103] + t_p^0[117] + t_p^0[132]
   + t_p^0[146] + t_p^0[159] + t_p^0[270] + t_p^0[306] >= 343
 Flight_EA3284_Spill: t_p^0[76] + t_p^0[266] + t_p^0[267] + t_p^0[268]
   + t_p^0[269] + t_p^0[270] + t_p^0[271] + t_p^0[272] >= 212
 Flight_EA1640_Spill: t_p^0[21] + t_p^0[150] + t_p^0[200] + t_p^0[206]
   + t_p^0[219] + t_p^0[252] + t_p^0[290] >= 350
 Flight_EA1918_Spill: t_p^0[30] + t_p^0[93] + t_p^0[99] + t_p^0[113]
   + t_p^0[130] + t_p^0[144] + t_p^0[268] + t_p^0[275] + t_p^0[286]
   + t_p^0[302] >= 342
 Flight_EA1854_Spill: t_p^0[28] >= 12
 Flight_EA3258_Spill: t_p^0[75] >= -18
 Flight_EA1258_Spill: t_p^0[8] + t_p^0[129] + t_p^0[130] + t_p^0[131]
   + t_p^0[132] + t_p^0[133] + t_p^0[134] + t_p^0[135] >= 444
 Flight_EA3021_Spill: t_p^0[67] + t_p^0[211] + t_p^0[212] + t_p^0[213]
   + t_p^0[214] + t_p^0[215] + t_p^0[216] + t_p^0[217] >= 149
 Flight_EA1096_Spill: t_p^0[3] + t_p^0[91] + t_p^0[92] + t_p^0[93]
   + t_p^0[94] + t_p^0[95] + t_p^0[96] >= 923
 Flight_EA2925_Spill: t_p^0[64] + t_p^0[199] + t_p^0[200] + t_p^0[201]
   + t_p^0[202] + t_p^0[203] + t_p^0[204] >= 142
 Flight_EA2960_Spill: t_p^0[65] + t_p^0[205] + t_p^0[206] + t_p^0[207]
   + t_p^0[208] + t_p^0[209] >= 120
 Flight_EA2630_Spill: t_p^0[54] + t_p^0[125] + t_p^0[139] + t_p^0[169]
   + t_p^0[179] + t_p^0[188] + t_p^0[228] + t_p^0[233] + t_p^0[326] >= 278
 Flight_EA2544_Spill: t_p^0[51] + t_p^0[178] + t_p^0[187] + t_p^0[197]
   + t_p^0[216] + t_p^0[227] + t_p^0[242] + t_p^0[325] >= 213
 Flight_EA3590_Spill: t_p^0[86] + t_p^0[321] + t_p^0[322] + t_p^0[323]
   + t_p^0[324] + t_p^0[325] + t_p^0[326] + t_p^0[327] + t_p^0[328] >= 496
 Flight_EA2054_Spill: t_p^0[35] + t_p^0[94] + t_p^0[102] + t_p^0[116]
   + t_p^0[131] + t_p^0[145] + t_p^0[158] + t_p^0[269] + t_p^0[276]
   + t_p^0[287] >= 376
 Flight_EA1302_Spill: t_p^0[10] + t_p^0[143] + t_p^0[144] + t_p^0[145]
   + t_p^0[146] + t_p^0[147] + t_p^0[148] >= 357
 Flight_EA1362_Spill: t_p^0[12] >= -39
 Flight_EA2994_Spill: t_p^0[66] + t_p^0[210] >= -1
 Flight_EA2417_Spill: t_p^0[47] + t_p^0[96] + t_p^0[106] + t_p^0[120]
   + t_p^0[134] + t_p^0[148] + t_p^0[161] + t_p^0[196] + t_p^0[215]
   + t_p^0[241] + t_p^0[272] + t_p^0[289] + t_p^0[309] >= 873
 Flight_EA2279_Spill: t_p^0[42] + t_p^0[123] + t_p^0[137] + t_p^0[167]
   + t_p^0[248] + t_p^0[263] + t_p^0[300] + t_p^0[314] + t_p^0[319] >= 190
 Flight_EA2909_Spill: t_p^0[63] + t_p^0[192] + t_p^0[193] + t_p^0[194]
   + t_p^0[195] + t_p^0[196] + t_p^0[197] + t_p^0[198] >= 111
 Flight_EA1067_Spill: t_p^0[2] + t_p^0[88] + t_p^0[89] + t_p^0[90] >= 243
 Flight_EA2203_Spill: t_p^0[40] + t_p^0[166] + t_p^0[176] + t_p^0[185]
   + t_p^0[280] + t_p^0[324] >= 122
 Flight_EA2694_Spill: t_p^0[56] >= -10
 Flight_EA2114_Spill: t_p^0[37] + t_p^0[89] + t_p^0[109] + t_p^0[156]
   + t_p^0[247] + t_p^0[262] + t_p^0[299] + t_p^0[313] + t_p^0[318] >= 343
 Flight_EA2579_Spill: t_p^0[52] >= 7
 Flight_EA3505_Spill: t_p^0[83] + t_p^0[303] + t_p^0[304] + t_p^0[305]
   + t_p^0[306] + t_p^0[307] + t_p^0[308] + t_p^0[309] + t_p^0[310] >= 302
 Flight_EA3350_Spill: t_p^0[78] + t_p^0[277] + t_p^0[278] + t_p^0[279]
   + t_p^0[280] + t_p^0[281] + t_p^0[282] + t_p^0[283] >= 280
 Flight_EA3418_Spill: t_p^0[80] + t_p^0[290] + t_p^0[291] + t_p^0[292]
   + t_p^0[293] + t_p^0[294] + t_p^0[295] >= 615
 Flight_EA3199_Spill: t_p^0[73] + t_p^0[251] + t_p^0[252] + t_p^0[253]
   + t_p^0[254] + t_p^0[255] + t_p^0[256] + t_p^0[257] + t_p^0[258] >= 394
 Flight_EA1158_Spill: t_p^0[5] + t_p^0[108] + t_p^0[109] + t_p^0[110]
   >= 366
 Flight_EA3562_Spill: t_p^0[85] + t_p^0[315] + t_p^0[316] + t_p^0[317]
   + t_p^0[318] + t_p^0[319] + t_p^0[320] >= 479
 Flight_EA2505_Spill: t_p^0[50] >= -24
 Flight_EA1121_Spill: t_p^0[4] + t_p^0[97] + t_p^0[98] + t_p^0[99]
   + t_p^0[100] + t_p^0[101] + t_p^0[102] + t_p^0[103] + t_p^0[104]
   + t_p^0[105] + t_p^0[106] + t_p^0[107] >= 1103
 Flight_EA2593_Spill: t_p^0[53] + t_p^0[222] + t_p^0[257] >= 62
 Flight_EA2753_Spill: t_p^0[58] + t_p^0[154] + t_p^0[204] + t_p^0[209]
   + t_p^0[223] + t_p^0[258] + t_p^0[295] >= 369
 Flight_EA1757_Spill: t_p^0[25] + t_p^0[163] + t_p^0[173] + t_p^0[225]
   + t_p^0[231] + t_p^0[322] >= 277
 Flight_EA2248_Spill: t_p^0[41] + t_p^0[153] + t_p^0[255] + t_p^0[293]
   >= 97
 Flight_EA2660_Spill: t_p^0[55] + t_p^0[90] + t_p^0[110] + t_p^0[126]
   + t_p^0[140] + t_p^0[234] + t_p^0[250] + t_p^0[265] + t_p^0[320] >= 990
 Flight_EA2804_Spill: t_p^0[60] + t_p^0[128] + t_p^0[142] + t_p^0[171]
   + t_p^0[181] + t_p^0[191] + t_p^0[230] + t_p^0[236] + t_p^0[283]
   + t_p^0[328] >= 184
 Flight_EA1993_Spill: t_p^0[33] + t_p^0[100] + t_p^0[114] + t_p^0[183]
   + t_p^0[193] + t_p^0[211] + t_p^0[237] + t_p^0[278] + t_p^0[304] >= 313
 Flight_EA1662_Spill: t_p^0[22] + t_p^0[162] + t_p^0[172] + t_p^0[182]
   + t_p^0[192] + t_p^0[224] + t_p^0[277] + t_p^0[321] >= 613
 Flight_EA3176_Spill: t_p^0[72] + t_p^0[244] + t_p^0[245] + t_p^0[246]
   + t_p^0[247] + t_p^0[248] + t_p^0[249] + t_p^0[250] >= 350
 Flight_EA3132_Spill: t_p^0[71] + t_p^0[237] + t_p^0[238] + t_p^0[239]
   + t_p^0[240] + t_p^0[241] + t_p^0[242] + t_p^0[243] >= 235
 Demand_Limit_0: t_p^0[0] <= 5
 Demand_Limit_1: t_p^0[1] <= 40
 Demand_Limit_2: t_p^0[2] <= 25
 Demand_Limit_3: t_p^0[3] <= 72
 Demand_Limit_4: t_p^0[4] <= 90
 Demand_Limit_5: t_p^0[5] <= 50
 Demand_Limit_6: t_p^0[6] <= 51
 Demand_Limit_7: t_p^0[7] <= 57
 Demand_Limit_8: t_p^0[8] <= 74
 Demand_Limit_9: t_p^0[9] <= 41
 Demand_Limit_10: t_p^0[10] <= 62
 Demand_Limit_11: t_p^0[11] <= 170
 Demand_Limit_12: t_p^0[12] <= 31
 Demand_Limit_13: t_p^0[13] <= 7
 Demand_Limit_14: t_p^0[14] <= 32
 Demand_Limit_15: t_p^0[15] <= 1
 Demand_Limit_16: t_p^0[16] <= 28
 Demand_Limit_17: t_p^0[17] <= 36
 Demand_Limit_18: t_p^0[18] <= 82
 Demand_Limit_19: t_p^0[19] <= 131
 Demand_Limit_20: t_p^0[20] <= 1
 Demand_Limit_21: t_p^0[21] <= 16
 Demand_Limit_22: t_p^0[22] <= 79
 Demand_Limit_23: t_p^0[23] <= 60
 Demand_Limit_24: t_p^0[24] <= 50
 Demand_Limit_25: t_p^0[25] <= 61
 Demand_Limit_26: t_p^0[26] <= 63
 Demand_Limit_27: t_p^0[27] <= 61
 Demand_Limit_28: t_p^0[28] <= 57
 Demand_Limit_29: t_p^0[29] <= 36
 Demand_Limit_30: t_p^0[30] <= 4
 Demand_Limit_31: t_p^0[31] <= 57
 Demand_Limit_32: t_p^0[32] <= 25
 Demand_Limit_33: t_p^0[33] <= 6
 Demand_Limit_34: t_p^0[34] <= 61
 Demand_Limit_35: t_p^0[35] <= 42
 Demand_Limit_36: t_p^0[36] <= 43
 Demand_Limit_37: t_p^0[37] <= 92
 Demand_Limit_38: t_p^0[38] <= 24
 Demand_Limit_39: t_p^0[39] <= 39
 Demand_Limit_40: t_p^0[40] <= 5
 Demand_Limit_41: t_p^0[41] <= 14
 Demand_Limit_42: t_p^0[42] <= 44
 Demand_Limit_43: t_p^0[43] <= 15
 Demand_Limit_44: t_p^0[44] <= 33
 Demand_Limit_45: t_p^0[45] <= 12
 Demand_Limit_46: t_p^0[46] <= 68
 Demand_Limit_47: t_p^0[47] <= 45
 Demand_Limit_48: t_p^0[48] <= 52
 Demand_Limit_49: t_p^0[49] <= 29
 Demand_Limit_50: t_p^0[50] <= 21
 Demand_Limit_51: t_p^0[51] <= 9
 Demand_Limit_52: t_p^0[52] <= 52
 Demand_Limit_53: t_p^0[53] <= 33
 Demand_Limit_54: t_p^0[54] <= 40
 Demand_Limit_55: t_p^0[55] <= 36
 Demand_Limit_56: t_p^0[56] <= 35
 Demand_Limit_57: t_p^0[57] <= 51
 Demand_Limit_58: t_p^0[58] <= 64
 Demand_Limit_59: t_p^0[59] <= 54
 Demand_Limit_60: t_p^0[60] <= 36
 Demand_Limit_61: t_p^0[61] <= 61
 Demand_Limit_62: t_p^0[62] <= 42
 Demand_Limit_63: t_p^0[63] <= 25
 Demand_Limit_64: t_p^0[64] <= 33
 Demand_Limit_65: t_p^0[65] <= 73
 Demand_Limit_66: t_p^0[66] <= 26
 Demand_Limit_67: t_p^0[67] <= 29
 Demand_Limit_68: t_p^0[68] <= 14
 Demand_Limit_69: t_p^0[69] <= 82
 Demand_Limit_70: t_p^0[70] <= 6
 Demand_Limit_71: t_p^0[71] <= 19
 Demand_Limit_72: t_p^0[72] <= 37
 Demand_Limit_73: t_p^0[73] <= 43
 Demand_Limit_74: t_p^0[74] <= 45
 Demand_Limit_75: t_p^0[75] <= 52
 Demand_Limit_76: t_p^0[76] <= 52
 Demand_Limit_77: t_p^0[77] <= 18
 Demand_Limit_78: t_p^0[78] <= 33
 Demand_Limit_79: t_p^0[79] <= 37
 Demand_Limit_80: t_p^0[80] <= 14
 Demand_Limit_81: t_p^0[81] <= 59
 Demand_Limit_82: t_p^0[82] <= 49
 Demand_Limit_83: t_p^0[83] <= 24
 Demand_Limit_84: t_p^0[84] <= 20
 Demand_Limit_85: t_p^0[85] <= 64
 Demand_Limit_86: t_p^0[86] <= 54
 Demand_Limit_87: t_p^0[87] <= 36
 Demand_Limit_88: t_p^0[88] <= 52
 Demand_Limit_89: t_p^0[89] <= 79
 Demand_Limit_90: t_p^0[90] <= 157
 Demand_Limit_91: t_p^0[91] <= 594
 Demand_Limit_92: t_p^0[92] <= 13
 Demand_Limit_93: t_p^0[93] <= 30
 Demand_Limit_94: t_p^0[94] <= 28
 Demand_Limit_95: t_p^0[95] <= 62
 Demand_Limit_96: t_p^0[96] <= 194
 Demand_Limit_97: t_p^0[97] <= 358
 Demand_Limit_98: t_p^0[98] <= 39
 Demand_Limit_99: t_p^0[99] <= 8
 Demand_Limit_100: t_p^0[100] <= 104
 Demand_Limit_101: t_p^0[101] <= 87
 Demand_Limit_102: t_p^0[102] <= 66
 Demand_Limit_103: t_p^0[103] <= 79
 Demand_Limit_104: t_p^0[104] <= 3
 Demand_Limit_105: t_p^0[105] <= 35
 Demand_Limit_106: t_p^0[106] <= 123
 Demand_Limit_107: t_p^0[107] <= 181
 Demand_Limit_108: t_p^0[108] <= 66
 Demand_Limit_109: t_p^0[109] <= 46
 Demand_Limit_110: t_p^0[110] <= 274
 Demand_Limit_111: t_p^0[111] <= 3
 Demand_Limit_112: t_p^0[112] <= 112
 Demand_Limit_113: t_p^0[113] <= 79
 Demand_Limit_114: t_p^0[114] <= 76
 Demand_Limit_115: t_p^0[115] <= 133
 Demand_Limit_116: t_p^0[116] <= 72
 Demand_Limit_117: t_p^0[117] <= 68
 Demand_Limit_118: t_p^0[118] <= 66
 Demand_Limit_119: t_p^0[119] <= 36
 Demand_Limit_120: t_p^0[120] <= 189
 Demand_Limit_121: t_p^0[121] <= 92
 Demand_Limit_122: t_p^0[122] <= 6
 Demand_Limit_123: t_p^0[123] <= 39
 Demand_Limit_124: t_p^0[124] <= 1
 Demand_Limit_125: t_p^0[125] <= 45
 Demand_Limit_126: t_p^0[126] <= 56
 Demand_Limit_127: t_p^0[127] <= 54
 Demand_Limit_128: t_p^0[128] <= 14
 Demand_Limit_129: t_p^0[129] <= 62
 Demand_Limit_130: t_p^0[130] <= 94
 Demand_Limit_131: t_p^0[131] <= 46
 Demand_Limit_132: t_p^0[132] <= 34
 Demand_Limit_133: t_p^0[133] <= 66
 Demand_Limit_134: t_p^0[134] <= 70
 Demand_Limit_135: t_p^0[135] <= 68
 Demand_Limit_136: t_p^0[136] <= 38
 Demand_Limit_137: t_p^0[137] <= 0
 Demand_Limit_138: t_p^0[138] <= 30
 Demand_Limit_139: t_p^0[139] <= 12
 Demand_Limit_140: t_p^0[140] <= 0
 Demand_Limit_141: t_p^0[141] <= 81
 Demand_Limit_142: t_p^0[142] <= 18
 Demand_Limit_143: t_p^0[143] <= 15
 Demand_Limit_144: t_p^0[144] <= 101
 Demand_Limit_145: t_p^0[145] <= 67
 Demand_Limit_146: t_p^0[146] <= 45
 Demand_Limit_147: t_p^0[147] <= 77
 Demand_Limit_148: t_p^0[148] <= 60
 Demand_Limit_149: t_p^0[149] <= 3
 Demand_Limit_150: t_p^0[150] <= 158
 Demand_Limit_151: t_p^0[151] <= 80
 Demand_Limit_152: t_p^0[152] <= 16
 Demand_Limit_153: t_p^0[153] <= 15
 Demand_Limit_154: t_p^0[154] <= 43
 Demand_Limit_155: t_p^0[155] <= 147
 Demand_Limit_156: t_p^0[156] <= 16
 Demand_Limit_157: t_p^0[157] <= 8
 Demand_Limit_158: t_p^0[158] <= 42
 Demand_Limit_159: t_p^0[159] <= 17
 Demand_Limit_160: t_p^0[160] <= 91
 Demand_Limit_161: t_p^0[161] <= 95
 Demand_Limit_162: t_p^0[162] <= 0
 Demand_Limit_163: t_p^0[163] <= 65
 Demand_Limit_164: t_p^0[164] <= 91
 Demand_Limit_165: t_p^0[165] <= 9
 Demand_Limit_166: t_p^0[166] <= 2
 Demand_Limit_167: t_p^0[167] <= 15
 Demand_Limit_168: t_p^0[168] <= 21
 Demand_Limit_169: t_p^0[169] <= 42
 Demand_Limit_170: t_p^0[170] <= 40
 Demand_Limit_171: t_p^0[171] <= 11
 Demand_Limit_172: t_p^0[172] <= 37
 Demand_Limit_173: t_p^0[173] <= 38
 Demand_Limit_174: t_p^0[174] <= 69
 Demand_Limit_175: t_p^0[175] <= 2
 Demand_Limit_176: t_p^0[176] <= 12
 Demand_Limit_177: t_p^0[177] <= 19
 Demand_Limit_178: t_p^0[178] <= 78
 Demand_Limit_179: t_p^0[179] <= 79
 Demand_Limit_180: t_p^0[180] <= 6
 Demand_Limit_181: t_p^0[181] <= 7
 Demand_Limit_182: t_p^0[182] <= 167
 Demand_Limit_183: t_p^0[183] <= 42
 Demand_Limit_184: t_p^0[184] <= 219
 Demand_Limit_185: t_p^0[185] <= 76
 Demand_Limit_186: t_p^0[186] <= 140
 Demand_Limit_187: t_p^0[187] <= 21
 Demand_Limit_188: t_p^0[188] <= 51
 Demand_Limit_189: t_p^0[189] <= 11
 Demand_Limit_190: t_p^0[190] <= 17
 Demand_Limit_191: t_p^0[191] <= 32
 Demand_Limit_192: t_p^0[192] <= 43
 Demand_Limit_193: t_p^0[193] <= 11
 Demand_Limit_194: t_p^0[194] <= 3
 Demand_Limit_195: t_p^0[195] <= 4
 Demand_Limit_196: t_p^0[196] <= 53
 Demand_Limit_197: t_p^0[197] <= 15
 Demand_Limit_198: t_p^0[198] <= 2
 Demand_Limit_199: t_p^0[199] <= 9
 Demand_Limit_200: t_p^0[200] <= 38
 Demand_Limit_201: t_p^0[201] <= 29
 Demand_Limit_202: t_p^0[202] <= 8
 Demand_Limit_203: t_p^0[203] <= 27
 Demand_Limit_204: t_p^0[204] <= 43
 Demand_Limit_205: t_p^0[205] <= 15
 Demand_Limit_206: t_p^0[206] <= 5
 Demand_Limit_207: t_p^0[207] <= 35
 Demand_Limit_208: t_p^0[208] <= 2
 Demand_Limit_209: t_p^0[209] <= 35
 Demand_Limit_210: t_p^0[210] <= 18
 Demand_Limit_211: t_p^0[211] <= 34
 Demand_Limit_212: t_p^0[212] <= 19
 Demand_Limit_213: t_p^0[213] <= 18
 Demand_Limit_214: t_p^0[214] <= 61
 Demand_Limit_215: t_p^0[215] <= 0
 Demand_Limit_216: t_p^0[216] <= 11
 Demand_Limit_217: t_p^0[217] <= 22
 Demand_Limit_218: t_p^0[218] <= 32
 Demand_Limit_219: t_p^0[219] <= 40
 Demand_Limit_220: t_p^0[220] <= 16
 Demand_Limit_221: t_p^0[221] <= 68
 Demand_Limit_222: t_p^0[222] <= 58
 Demand_Limit_223: t_p^0[223] <= 1
 Demand_Limit_224: t_p^0[224] <= 21
 Demand_Limit_225: t_p^0[225] <= 54
 Demand_Limit_226: t_p^0[226] <= 47
 Demand_Limit_227: t_p^0[227] <= 51
 Demand_Limit_228: t_p^0[228] <= 35
 Demand_Limit_229: t_p^0[229] <= 62
 Demand_Limit_230: t_p^0[230] <= 28
 Demand_Limit_231: t_p^0[231] <= 61
 Demand_Limit_232: t_p^0[232] <= 17
 Demand_Limit_233: t_p^0[233] <= 2
 Demand_Limit_234: t_p^0[234] <= 58
 Demand_Limit_235: t_p^0[235] <= 49
 Demand_Limit_236: t_p^0[236] <= 21
 Demand_Limit_237: t_p^0[237] <= 47
 Demand_Limit_238: t_p^0[238] <= 60
 Demand_Limit_239: t_p^0[239] <= 51
 Demand_Limit_240: t_p^0[240] <= 39
 Demand_Limit_241: t_p^0[241] <= 19
 Demand_Limit_242: t_p^0[242] <= 39
 Demand_Limit_243: t_p^0[243] <= 6
 Demand_Limit_244: t_p^0[244] <= 74
 Demand_Limit_245: t_p^0[245] <= 38
 Demand_Limit_246: t_p^0[246] <= 46
 Demand_Limit_247: t_p^0[247] <= 13
 Demand_Limit_248: t_p^0[248] <= 13
 Demand_Limit_249: t_p^0[249] <= 46
 Demand_Limit_250: t_p^0[250] <= 153
 Demand_Limit_251: t_p^0[251] <= 91
 Demand_Limit_252: t_p^0[252] <= 39
 Demand_Limit_253: t_p^0[253] <= 105
 Demand_Limit_254: t_p^0[254] <= 4
 Demand_Limit_255: t_p^0[255] <= 52
 Demand_Limit_256: t_p^0[256] <= 66
 Demand_Limit_257: t_p^0[257] <= 16
 Demand_Limit_258: t_p^0[258] <= 48
 Demand_Limit_259: t_p^0[259] <= 508
 Demand_Limit_260: t_p^0[260] <= 131
 Demand_Limit_261: t_p^0[261] <= 3
 Demand_Limit_262: t_p^0[262] <= 14
 Demand_Limit_263: t_p^0[263] <= 50
 Demand_Limit_264: t_p^0[264] <= 4
 Demand_Limit_265: t_p^0[265] <= 96
 Demand_Limit_266: t_p^0[266] <= 4
 Demand_Limit_267: t_p^0[267] <= 20
 Demand_Limit_268: t_p^0[268] <= 18
 Demand_Limit_269: t_p^0[269] <= 13
 Demand_Limit_270: t_p^0[270] <= 46
 Demand_Limit_271: t_p^0[271] <= 40
 Demand_Limit_272: t_p^0[272] <= 64
 Demand_Limit_273: t_p^0[273] <= 54
 Demand_Limit_274: t_p^0[274] <= 28
 Demand_Limit_275: t_p^0[275] <= 21
 Demand_Limit_276: t_p^0[276] <= 49
 Demand_Limit_277: t_p^0[277] <= 62
 Demand_Limit_278: t_p^0[278] <= 10
 Demand_Limit_279: t_p^0[279] <= 24
 Demand_Limit_280: t_p^0[280] <= 41
 Demand_Limit_281: t_p^0[281] <= 50
 Demand_Limit_282: t_p^0[282] <= 31
 Demand_Limit_283: t_p^0[283] <= 74
 Demand_Limit_284: t_p^0[284] <= 85
 Demand_Limit_285: t_p^0[285] <= 24
 Demand_Limit_286: t_p^0[286] <= 14
 Demand_Limit_287: t_p^0[287] <= 21
 Demand_Limit_288: t_p^0[288] <= 26
 Demand_Limit_289: t_p^0[289] <= 9
 Demand_Limit_290: t_p^0[290] <= 124
 Demand_Limit_291: t_p^0[291] <= 21
 Demand_Limit_292: t_p^0[292] <= 48
 Demand_Limit_293: t_p^0[293] <= 61
 Demand_Limit_294: t_p^0[294] <= 187
 Demand_Limit_295: t_p^0[295] <= 205
 Demand_Limit_296: t_p^0[296] <= 197
 Demand_Limit_297: t_p^0[297] <= 55
 Demand_Limit_298: t_p^0[298] <= 18
 Demand_Limit_299: t_p^0[299] <= 25
 Demand_Limit_300: t_p^0[300] <= 46
 Demand_Limit_301: t_p^0[301] <= 17
 Demand_Limit_302: t_p^0[302] <= 18
 Demand_Limit_303: t_p^0[303] <= 28
 Demand_Limit_304: t_p^0[304] <= 28
 Demand_Limit_305: t_p^0[305] <= 86
 Demand_Limit_306: t_p^0[306] <= 60
 Demand_Limit_307: t_p^0[307] <= 50
 Demand_Limit_308: t_p^0[308] <= 2
 Demand_Limit_309: t_p^0[309] <= 22
 Demand_Limit_310: t_p^0[310] <= 47
 Demand_Limit_311: t_p^0[311] <= 47
 Demand_Limit_312: t_p^0[312] <= 26
 Demand_Limit_313: t_p^0[313] <= 45
 Demand_Limit_314: t_p^0[314] <= 7
 Demand_Limit_315: t_p^0[315] <= 93
 Demand_Limit_316: t_p^0[316] <= 65
 Demand_Limit_317: t_p^0[317] <= 43
 Demand_Limit_318: t_p^0[318] <= 58
 Demand_Limit_319: t_p^0[319] <= 21
 Demand_Limit_320: t_p^0[320] <= 205
 Demand_Limit_321: t_p^0[321] <= 274
 Demand_Limit_322: t_p^0[322] <= 68
 Demand_Limit_323: t_p^0[323] <= 48
 Demand_Limit_324: t_p^0[324] <= 31
 Demand_Limit_325: t_p^0[325] <= 34
 Demand_Limit_326: t_p^0[326] <= 17
 Demand_Limit_327: t_p^0[327] <= 27
 Demand_Limit_328: t_p^0[328] <= 13
 NonNegative_t_0_0: t_p^0[0] >= 0
 NonNegative_t_1_0: t_p^0[1] >= 0
 NonNegative_t_2_0: t_p^0[2] >= 0
 NonNegative_t_3_0: t_p^0[3] >= 0
 NonNegative_t_4_0: t_p^0[4] >= 0
 NonNegative_t_5_0: t_p^0[5] >= 0
 NonNegative_t_6_0: t_p^0[6] >= 0
 NonNegative_t_7_0: t_p^0[7] >= 0
 NonNegative_t_8_0: t_p^0[8] >= 0
 NonNegative_t_9_0: t_p^0[9] >= 0
 NonNegative_t_10_0: t_p^0[10] >= 0
 NonNegative_t_11_0: t_p^0[11] >= 0
 NonNegative_t_12_0: t_p^0[12] >= 0
 NonNegative_t_13_0: t_p^0[13] >= 0
 NonNegative_t_14_0: t_p^0[14] >= 0
 NonNegative_t_15_0: t_p^0[15] >= 0
 NonNegative_t_16_0: t_p^0[16] >= 0
 NonNegative_t_17_0: t_p^0[17] >= 0
 NonNegative_t_18_0: t_p^0[18] >= 0
 NonNegative_t_19_0: t_p^0[19] >= 0
 NonNegative_t_20_0: t_p^0[20] >= 0
 NonNegative_t_21_0: t_p^0[21] >= 0
 NonNegative_t_22_0: t_p^0[22] >= 0
 NonNegative_t_23_0: t_p^0[23] >= 0
 NonNegative_t_24_0: t_p^0[24] >= 0
 NonNegative_t_25_0: t_p^0[25] >= 0
 NonNegative_t_26_0: t_p^0[26] >= 0
 NonNegative_t_27_0: t_p^0[27] >= 0
 NonNegative_t_28_0: t_p^0[28] >= 0
 NonNegative_t_29_0: t_p^0[29] >= 0
 NonNegative_t_30_0: t_p^0[30] >= 0
 NonNegative_t_31_0: t_p^0[31] >= 0
 NonNegative_t_32_0: t_p^0[32] >= 0
 NonNegative_t_33_0: t_p^0[33] >= 0
 NonNegative_t_34_0: t_p^0[34] >= 0
 NonNegative_t_35_0: t_p^0[35] >= 0
 NonNegative_t_36_0: t_p^0[36] >= 0
 NonNegative_t_37_0: t_p^0[37] >= 0
 NonNegative_t_38_0: t_p^0[38] >= 0
 NonNegative_t_39_0: t_p^0[39] >= 0
 NonNegative_t_40_0: t_p^0[40] >= 0
 NonNegative_t_41_0: t_p^0[41] >= 0
 NonNegative_t_42_0: t_p^0[42] >= 0
 NonNegative_t_43_0: t_p^0[43] >= 0
 NonNegative_t_44_0: t_p^0[44] >= 0
 NonNegative_t_45_0: t_p^0[45] >= 0
 NonNegative_t_46_0: t_p^0[46] >= 0
 NonNegative_t_47_0: t_p^0[47] >= 0
 NonNegative_t_48_0: t_p^0[48] >= 0
 NonNegative_t_49_0: t_p^0[49] >= 0
 NonNegative_t_50_0: t_p^0[50] >= 0
 NonNegative_t_51_0: t_p^0[51] >= 0
 NonNegative_t_52_0: t_p^0[52] >= 0
 NonNegative_t_53_0: t_p^0[53] >= 0
 NonNegative_t_54_0: t_p^0[54] >= 0
 NonNegative_t_55_0: t_p^0[55] >= 0
 NonNegative_t_56_0: t_p^0[56] >= 0
 NonNegative_t_57_0: t_p^0[57] >= 0
 NonNegative_t_58_0: t_p^0[58] >= 0
 NonNegative_t_59_0: t_p^0[59] >= 0
 NonNegative_t_60_0: t_p^0[60] >= 0
 NonNegative_t_61_0: t_p^0[61] >= 0
 NonNegative_t_62_0: t_p^0[62] >= 0
 NonNegative_t_63_0: t_p^0[63] >= 0
 NonNegative_t_64_0: t_p^0[64] >= 0
 NonNegative_t_65_0: t_p^0[65] >= 0
 NonNegative_t_66_0: t_p^0[66] >= 0
 NonNegative_t_67_0: t_p^0[67] >= 0
 NonNegative_t_68_0: t_p^0[68] >= 0
 NonNegative_t_69_0: t_p^0[69] >= 0
 NonNegative_t_70_0: t_p^0[70] >= 0
 NonNegative_t_71_0: t_p^0[71] >= 0
 NonNegative_t_72_0: t_p^0[72] >= 0
 NonNegative_t_73_0: t_p^0[73] >= 0
 NonNegative_t_74_0: t_p^0[74] >= 0
 NonNegative_t_75_0: t_p^0[75] >= 0
 NonNegative_t_76_0: t_p^0[76] >= 0
 NonNegative_t_77_0: t_p^0[77] >= 0
 NonNegative_t_78_0: t_p^0[78] >= 0
 NonNegative_t_79_0: t_p^0[79] >= 0
 NonNegative_t_80_0: t_p^0[80] >= 0
 NonNegative_t_81_0: t_p^0[81] >= 0
 NonNegative_t_82_0: t_p^0[82] >= 0
 NonNegative_t_83_0: t_p^0[83] >= 0
 NonNegative_t_84_0: t_p^0[84] >= 0
 NonNegative_t_85_0: t_p^0[85] >= 0
 NonNegative_t_86_0: t_p^0[86] >= 0
 NonNegative_t_87_0: t_p^0[87] >= 0
 NonNegative_t_88_0: t_p^0[88] >= 0
 NonNegative_t_89_0: t_p^0[89] >= 0
 NonNegative_t_90_0: t_p^0[90] >= 0
 NonNegative_t_91_0: t_p^0[91] >= 0
 NonNegative_t_92_0: t_p^0[92] >= 0
 NonNegative_t_93_0: t_p^0[93] >= 0
 NonNegative_t_94_0: t_p^0[94] >= 0
 NonNegative_t_95_0: t_p^0[95] >= 0
 NonNegative_t_96_0: t_p^0[96] >= 0
 NonNegative_t_97_0: t_p^0[97] >= 0
 NonNegative_t_98_0: t_p^0[98] >= 0
 NonNegative_t_99_0: t_p^0[99] >= 0
 NonNegative_t_100_0: t_p^0[100] >= 0
 NonNegative_t_101_0: t_p^0[101] >= 0
 NonNegative_t_102_0: t_p^0[102] >= 0
 NonNegative_t_103_0: t_p^0[103] >= 0
 NonNegative_t_104_0: t_p^0[104] >= 0
 NonNegative_t_105_0: t_p^0[105] >= 0
 NonNegative_t_106_0: t_p^0[106] >= 0
 NonNegative_t_107_0: t_p^0[107] >= 0
 NonNegative_t_108_0: t_p^0[108] >= 0
 NonNegative_t_109_0: t_p^0[109] >= 0
 NonNegative_t_110_0: t_p^0[110] >= 0
 NonNegative_t_111_0: t_p^0[111] >= 0
 NonNegative_t_112_0: t_p^0[112] >= 0
 NonNegative_t_113_0: t_p^0[113] >= 0
 NonNegative_t_114_0: t_p^0[114] >= 0
 NonNegative_t_115_0: t_p^0[115] >= 0
 NonNegative_t_116_0: t_p^0[116] >= 0
 NonNegative_t_117_0: t_p^0[117] >= 0
 NonNegative_t_118_0: t_p^0[118] >= 0
 NonNegative_t_119_0: t_p^0[119] >= 0
 NonNegative_t_120_0: t_p^0[120] >= 0
 NonNegative_t_121_0: t_p^0[121] >= 0
 NonNegative_t_122_0: t_p^0[122] >= 0
 NonNegative_t_123_0: t_p^0[123] >= 0
 NonNegative_t_124_0: t_p^0[124] >= 0
 NonNegative_t_125_0: t_p^0[125] >= 0
 NonNegative_t_126_0: t_p^0[126] >= 0
 NonNegative_t_127_0: t_p^0[127] >= 0
 NonNegative_t_128_0: t_p^0[128] >= 0
 NonNegative_t_129_0: t_p^0[129] >= 0
 NonNegative_t_130_0: t_p^0[130] >= 0
 NonNegative_t_131_0: t_p^0[131] >= 0
 NonNegative_t_132_0: t_p^0[132] >= 0
 NonNegative_t_133_0: t_p^0[133] >= 0
 NonNegative_t_134_0: t_p^0[134] >= 0
 NonNegative_t_135_0: t_p^0[135] >= 0
 NonNegative_t_136_0: t_p^0[136] >= 0
 NonNegative_t_137_0: t_p^0[137] >= 0
 NonNegative_t_138_0: t_p^0[138] >= 0
 NonNegative_t_139_0: t_p^0[139] >= 0
 NonNegative_t_140_0: t_p^0[140] >= 0
 NonNegative_t_141_0: t_p^0[141] >= 0
 NonNegative_t_142_0: t_p^0[142] >= 0
 NonNegative_t_143_0: t_p^0[143] >= 0
 NonNegative_t_144_0: t_p^0[144] >= 0
 NonNegative_t_145_0: t_p^0[145] >= 0
 NonNegative_t_146_0: t_p^0[146] >= 0
 NonNegative_t_147_0: t_p^0[147] >= 0
 NonNegative_t_148_0: t_p^0[148] >= 0
 NonNegative_t_149_0: t_p^0[149] >= 0
 NonNegative_t_150_0: t_p^0[150] >= 0
 NonNegative_t_151_0: t_p^0[151] >= 0
 NonNegative_t_152_0: t_p^0[152] >= 0
 NonNegative_t_153_0: t_p^0[153] >= 0
 NonNegative_t_154_0: t_p^0[154] >= 0
 NonNegative_t_155_0: t_p^0[155] >= 0
 NonNegative_t_156_0: t_p^0[156] >= 0
 NonNegative_t_157_0: t_p^0[157] >= 0
 NonNegative_t_158_0: t_p^0[158] >= 0
 NonNegative_t_159_0: t_p^0[159] >= 0
 NonNegative_t_160_0: t_p^0[160] >= 0
 NonNegative_t_161_0: t_p^0[161] >= 0
 NonNegative_t_162_0: t_p^0[162] >= 0
 NonNegative_t_163_0: t_p^0[163] >= 0
 NonNegative_t_164_0: t_p^0[164] >= 0
 NonNegative_t_165_0: t_p^0[165] >= 0
 NonNegative_t_166_0: t_p^0[166] >= 0
 NonNegative_t_167_0: t_p^0[167] >= 0
 NonNegative_t_168_0: t_p^0[168] >= 0
 NonNegative_t_169_0: t_p^0[169] >= 0
 NonNegative_t_170_0: t_p^0[170] >= 0
 NonNegative_t_171_0: t_p^0[171] >= 0
 NonNegative_t_172_0: t_p^0[172] >= 0
 NonNegative_t_173_0: t_p^0[173] >= 0
 NonNegative_t_174_0: t_p^0[174] >= 0
 NonNegative_t_175_0: t_p^0[175] >= 0
 NonNegative_t_176_0: t_p^0[176] >= 0
 NonNegative_t_177_0: t_p^0[177] >= 0
 NonNegative_t_178_0: t_p^0[178] >= 0
 NonNegative_t_179_0: t_p^0[179] >= 0
 NonNegative_t_180_0: t_p^0[180] >= 0
 NonNegative_t_181_0: t_p^0[181] >= 0
 NonNegative_t_182_0: t_p^0[182] >= 0
 NonNegative_t_183_0: t_p^0[183] >= 0
 NonNegative_t_184_0: t_p^0[184] >= 0
 NonNegative_t_185_0: t_p^0[185] >= 0
 NonNegative_t_186_0: t_p^0[186] >= 0
 NonNegative_t_187_0: t_p^0[187] >= 0
 NonNegative_t_188_0: t_p^0[188] >= 0
 NonNegative_t_189_0: t_p^0[189] >= 0
 NonNegative_t_190_0: t_p^0[190] >= 0
 NonNegative_t_191_0: t_p^0[191] >= 0
 NonNegative_t_192_0: t_p^0[192] >= 0
 NonNegative_t_193_0: t_p^0[193] >= 0
 NonNegative_t_194_0: t_p^0[194] >= 0
 NonNegative_t_195_0: t_p^0[195] >= 0
 NonNegative_t_196_0: t_p^0[196] >= 0
 NonNegative_t_197_0: t_p^0[197] >= 0
 NonNegative_t_198_0: t_p^0[198] >= 0
 NonNegative_t_199_0: t_p^0[199] >= 0
 NonNegative_t_200_0: t_p^0[200] >= 0
 NonNegative_t_201_0: t_p^0[201] >= 0
 NonNegative_t_202_0: t_p^0[202] >= 0
 NonNegative_t_203_0: t_p^0[203] >= 0
 NonNegative_t_204_0: t_p^0[204] >= 0
 NonNegative_t_205_0: t_p^0[205] >= 0
 NonNegative_t_206_0: t_p^0[206] >= 0
 NonNegative_t_207_0: t_p^0[207] >= 0
 NonNegative_t_208_0: t_p^0[208] >= 0
 NonNegative_t_209_0: t_p^0[209] >= 0
 NonNegative_t_210_0: t_p^0[210] >= 0
 NonNegative_t_211_0: t_p^0[211] >= 0
 NonNegative_t_212_0: t_p^0[212] >= 0
 NonNegative_t_213_0: t_p^0[213] >= 0
 NonNegative_t_214_0: t_p^0[214] >= 0
 NonNegative_t_215_0: t_p^0[215] >= 0
 NonNegative_t_216_0: t_p^0[216] >= 0
 NonNegative_t_217_0: t_p^0[217] >= 0
 NonNegative_t_218_0: t_p^0[218] >= 0
 NonNegative_t_219_0: t_p^0[219] >= 0
 NonNegative_t_220_0: t_p^0[220] >= 0
 NonNegative_t_221_0: t_p^0[221] >= 0
 NonNegative_t_222_0: t_p^0[222] >= 0
 NonNegative_t_223_0: t_p^0[223] >= 0
 NonNegative_t_224_0: t_p^0[224] >= 0
 NonNegative_t_225_0: t_p^0[225] >= 0
 NonNegative_t_226_0: t_p^0[226] >= 0
 NonNegative_t_227_0: t_p^0[227] >= 0
 NonNegative_t_228_0: t_p^0[228] >= 0
 NonNegative_t_229_0: t_p^0[229] >= 0
 NonNegative_t_230_0: t_p^0[230] >= 0
 NonNegative_t_231_0: t_p^0[231] >= 0
 NonNegative_t_232_0: t_p^0[232] >= 0
 NonNegative_t_233_0: t_p^0[233] >= 0
 NonNegative_t_234_0: t_p^0[234] >= 0
 NonNegative_t_235_0: t_p^0[235] >= 0
 NonNegative_t_236_0: t_p^0[236] >= 0
 NonNegative_t_237_0: t_p^0[237] >= 0
 NonNegative_t_238_0: t_p^0[238] >= 0
 NonNegative_t_239_0: t_p^0[239] >= 0
 NonNegative_t_240_0: t_p^0[240] >= 0
 NonNegative_t_241_0: t_p^0[241] >= 0
 NonNegative_t_242_0: t_p^0[242] >= 0
 NonNegative_t_243_0: t_p^0[243] >= 0
 NonNegative_t_244_0: t_p^0[244] >= 0
 NonNegative_t_245_0: t_p^0[245] >= 0
 NonNegative_t_246_0: t_p^0[246] >= 0
 NonNegative_t_247_0: t_p^0[247] >= 0
 NonNegative_t_248_0: t_p^0[248] >= 0
 NonNegative_t_249_0: t_p^0[249] >= 0
 NonNegative_t_250_0: t_p^0[250] >= 0
 NonNegative_t_251_0: t_p^0[251] >= 0
 NonNegative_t_252_0: t_p^0[252] >= 0
 NonNegative_t_253_0: t_p^0[253] >= 0
 NonNegative_t_254_0: t_p^0[254] >= 0
 NonNegative_t_255_0: t_p^0[255] >= 0
 NonNegative_t_256_0: t_p^0[256] >= 0
 NonNegative_t_257_0: t_p^0[257] >= 0
 NonNegative_t_258_0: t_p^0[258] >= 0
 NonNegative_t_259_0: t_p^0[259] >= 0
 NonNegative_t_260_0: t_p^0[260] >= 0
 NonNegative_t_261_0: t_p^0[261] >= 0
 NonNegative_t_262_0: t_p^0[262] >= 0
 NonNegative_t_263_0: t_p^0[263] >= 0
 NonNegative_t_264_0: t_p^0[264] >= 0
 NonNegative_t_265_0: t_p^0[265] >= 0
 NonNegative_t_266_0: t_p^0[266] >= 0
 NonNegative_t_267_0: t_p^0[267] >= 0
 NonNegative_t_268_0: t_p^0[268] >= 0
 NonNegative_t_269_0: t_p^0[269] >= 0
 NonNegative_t_270_0: t_p^0[270] >= 0
 NonNegative_t_271_0: t_p^0[271] >= 0
 NonNegative_t_272_0: t_p^0[272] >= 0
 NonNegative_t_273_0: t_p^0[273] >= 0
 NonNegative_t_274_0: t_p^0[274] >= 0
 NonNegative_t_275_0: t_p^0[275] >= 0
 NonNegative_t_276_0: t_p^0[276] >= 0
 NonNegative_t_277_0: t_p^0[277] >= 0
 NonNegative_t_278_0: t_p^0[278] >= 0
 NonNegative_t_279_0: t_p^0[279] >= 0
 NonNegative_t_280_0: t_p^0[280] >= 0
 NonNegative_t_281_0: t_p^0[281] >= 0
 NonNegative_t_282_0: t_p^0[282] >= 0
 NonNegative_t_283_0: t_p^0[283] >= 0
 NonNegative_t_284_0: t_p^0[284] >= 0
 NonNegative_t_285_0: t_p^0[285] >= 0
 NonNegative_t_286_0: t_p^0[286] >= 0
 NonNegative_t_287_0: t_p^0[287] >= 0
 NonNegative_t_288_0: t_p^0[288] >= 0
 NonNegative_t_289_0: t_p^0[289] >= 0
 NonNegative_t_290_0: t_p^0[290] >= 0
 NonNegative_t_291_0: t_p^0[291] >= 0
 NonNegative_t_292_0: t_p^0[292] >= 0
 NonNegative_t_293_0: t_p^0[293] >= 0
 NonNegative_t_294_0: t_p^0[294] >= 0
 NonNegative_t_295_0: t_p^0[295] >= 0
 NonNegative_t_296_0: t_p^0[296] >= 0
 NonNegative_t_297_0: t_p^0[297] >= 0
 NonNegative_t_298_0: t_p^0[298] >= 0
 NonNegative_t_299_0: t_p^0[299] >= 0
 NonNegative_t_300_0: t_p^0[300] >= 0
 NonNegative_t_301_0: t_p^0[301] >= 0
 NonNegative_t_302_0: t_p^0[302] >= 0
 NonNegative_t_303_0: t_p^0[303] >= 0
 NonNegative_t_304_0: t_p^0[304] >= 0
 NonNegative_t_305_0: t_p^0[305] >= 0
 NonNegative_t_306_0: t_p^0[306] >= 0
 NonNegative_t_307_0: t_p^0[307] >= 0
 NonNegative_t_308_0: t_p^0[308] >= 0
 NonNegative_t_309_0: t_p^0[309] >= 0
 NonNegative_t_310_0: t_p^0[310] >= 0
 NonNegative_t_311_0: t_p^0[311] >= 0
 NonNegative_t_312_0: t_p^0[312] >= 0
 NonNegative_t_313_0: t_p^0[313] >= 0
 NonNegative_t_314_0: t_p^0[314] >= 0
 NonNegative_t_315_0: t_p^0[315] >= 0
 NonNegative_t_316_0: t_p^0[316] >= 0
 NonNegative_t_317_0: t_p^0[317] >= 0
 NonNegative_t_318_0: t_p^0[318] >= 0
 NonNegative_t_319_0: t_p^0[319] >= 0
 NonNegative_t_320_0: t_p^0[320] >= 0
 NonNegative_t_321_0: t_p^0[321] >= 0
 NonNegative_t_322_0: t_p^0[322] >= 0
 NonNegative_t_323_0: t_p^0[323] >= 0
 NonNegative_t_324_0: t_p^0[324] >= 0
 NonNegative_t_325_0: t_p^0[325] >= 0
 NonNegative_t_326_0: t_p^0[326] >= 0
 NonNegative_t_327_0: t_p^0[327] >= 0
 NonNegative_t_328_0: t_p^0[328] >= 0
Bounds
End
